&BANDS
outdir = './tmp/'
prefix = 'BS'
filband = 'BS.bands'
/
