&CONTROL
 calculation = 'scf'
 prefix = 'BS'
 outdir = './tmp'
 pseudo_dir = '/home/aljawimth/maj/pseudo'
/

&SYSTEM
 ibrav = 0
 nat = 4
 ntyp = 2
 nbnd = 18
 ecutwfc = 60
/

&ELECTRONS
conv_thr = 1.d-6
/

ATOMIC_SPECIES
B  10.811 B.pbe-n-kjpaw_psl.1.0.0.UPF
S  32.065 S.pbe-n-kjpaw_psl.1.0.0.UPF

CELL_PARAMETERS (angstrom)
   3.045616068   0.000000000   0.000000000
   1.522808034   2.637580883   0.000000000
   0.000000000   0.000000000  15.000000000

ATOMIC_POSITIONS (crystal)
S             0.3333333300        0.3333333300        0.5493414273
B             0.6666666700        0.6666666700        0.4925352976
B             0.6666666700        0.6666666700        0.3774414122
S             0.3333333300        0.3333333300        0.3206818630

K_POINTS (automatic)
9 9 1 0 0 0
