&CONTROL
 calculation = 'scf'
 prefix = 'BS'
 outdir = './tmp'
 pseudo_dir = '/home/aljawimth/maj/pseudo'
/

&SYSTEM
 ibrav = 0
 nat = 4
 ntyp = 2
 ecutwfc = 60
/

&ELECTRONS
conv_thr = 1.d-11
/

ATOMIC_SPECIES
B  10.811 B.pbe-n-kjpaw_psl.1.0.0.UPF
S  32.065 S.pbe-n-kjpaw_psl.1.0.0.UPF

CELL_PARAMETERS (angstrom)
 3.20000000 0.00000000 0.00000000
 1.60000000 2.77128129 0.00000000 
 0.00000000 0.00000000 15.00000000

ATOMIC_POSITIONS (crystal)
S  0.33333333 0.33333333 0.55000000
B  0.66666667 0.66666667 0.50000000
B  0.66666667 0.66666667 0.37000000
S  0.33333333 0.33333333 0.32000000

K_POINTS (automatic)
24 24 1 0 0 0 
